(set-logic QF_S)
(declare-fun var_0xINPUT_26361 () String)
(assert (and (= (len var_0xINPUT_26361) 0) (= (len var_0xINPUT_26361) 0) (not (= var_0xINPUT_26361 "3s71lxYG6e"))))
(check-sat var_0xINPUT_26361)